TOUR_SECTION
87
53
48
102
139
121
52
141
174
155
190
168
39
74
18
144
178
11
96
9
165
150
32
45
83
111
19
161
109
99
187
196
31
82
132
195
12
76
106
198
163
160
81
143
142
37
100
21
2
189
44
57
34
10
24
170
158
152
175
3
62
23
134
137
120
86
151
67
173
46
179
60
72
88
63
197
26
8
126
125
116
182
42
36
115
90
71
135
28
79
184
16
154
50
188
131
112
186
27
15
69
113
128
5
157
166
162
35
192
108
43
77
94
119
117
91
14
68
140
177
114
159
54
92
1
98
95
138
107
51
181
194
183
130
6
65
80
191
172
153
122
164
156
56
66
70
105
104
147
7
58
38
30
146
97
41
22
40
145
61
20
110
73
148
84
29
13
75
78
136
129
200
167
33
123
47
180
169
4
124
85
193
93
64
133
103
89
118
149
17
59
101
185
25
171
199
49
176
55
127
-1
EOF